TOUR_SECTION
111
128
141
97
80
149
41
28
189
117
145
167
94
33
35
144
17
46
132
2
73
120
61
23
11
29
53
200
172
114
179
68
22
36
187
158
131
76
170
196
191
162
90
20
106
89
26
182
32
197
109
101
174
99
85
124
166
142
5
31
66
88
9
19
87
107
165
190
12
98
153
91
49
57
180
148
103
157
84
78
64
116
160
63
178
27
136
146
112
51
45
56
93
69
58
100
121
25
133
3
67
115
50
130
14
55
123
159
152
140
60
161
127
77
16
8
151
44
169
83
154
198
118
10
173
1
163
65
13
7
52
139
194
164
137
195
183
175
168
177
15
181
37
30
113
70
75
40
185
193
18
119
62
59
81
72
150
74
122
105
21
110
34
82
71
38
126
48
42
192
184
199
134
6
79
47
92
24
86
4
39
96
43
95
129
186
54
147
176
104
138
102
156
135
188
108
125
143
155
171
-1
EOF